&CONTROL
calculation = 'relax' ,
restart_mode = 'restart' ,
outdir = './LiAg_110' ,
pseudo_dir = '/home/ecastro/trabajo_final/pseudos/' ,
prefix = 'LiAg_110' ,
max_seconds = 3550 ,
nstep = 500 ,
tstress = .true. ,
tprnfor = .true. ,
 /
&SYSTEM
ibrav = 0,
nat = 12,
ntyp = 2,
ecutwfc = 55 ,
ecutrho = 500 ,
occupations = 'smearing'
degauss = 0.03,
smearing = 'methfessel-paxton'
vdw_corr = 'DFT-D3' ,
dftd3_threebody = .false. ,
nosym = .true.,
/
&ELECTRONS
conv_thr = 1.0d-6 ,
mixing_beta = 0.3 ,
diagonalization = 'david' ,
electron_maxstep = 200
 /
&IONS
ion_dynamics = 'bfgs' 
 /
CELL_PARAMETERS angstrom
3.1227403300000005 0.0 1.912126974851425e-16
7.101826184307043e-16 4.416221726455435 -7.101826184307043e-16
0.0 0.0 31.040554316138596

ATOMIC_SPECIES
Ag  107.8682  Ag.pbe-n-rrkjus_psl.1.0.0.UPF
Li  6.9410  Li.pbe-s-rrkjus_psl.1.0.0.UPF

ATOMIC_POSITIONS (Angstrom)
Ag 0.7806850825000006 1.1040554316138593 21.040554316138596
Ag 0.7806850825000009 3.312166294841577 18.832443452910876
Ag 0.7806850825000006 1.1040554316138593 16.624332589683156 0 0 0
Ag 0.7806850825000009 3.312166294841577 14.416221726455435 0 0 0
Ag 0.7806850825000006 1.1040554316138573 12.208110863227722 0 0 0
Ag 0.7806850825000009 3.312166294841577 10.0 0 0 0
Li 2.3420552475000007 3.312166294841577 21.040554316138593
Li 2.3420552475 1.1040554316138593 18.832443452910876
Li 2.3420552475000007 3.312166294841577 16.624332589683156 0 0 0
Li 2.3420552475 1.1040554316138573 14.416221726455435 0 0 0
Li 2.3420552475000007 3.312166294841575 12.208110863227722 0 0 0
Li 2.3420552475 1.1040554316138593 10.0 0 0 0

K_POINTS automatic
8 8 1   0 0 0