&CONTROL
calculation = 'relax' ,
restart_mode = 'restart' ,
outdir = './Ag_111' ,
pseudo_dir = '/home/ecastro/trabajo_final/pseudos/' ,
prefix = 'Ag_111' ,
max_seconds = 3550 ,
nstep = 500 ,
tstress = .true. ,
tprnfor = .true. ,
 /
&SYSTEM
ibrav = 0,
nat = 46,
ntyp = 1,
ecutwfc = 55 ,
ecutrho = 500 ,
occupations = 'smearing'
degauss = 0.03,
smearing = 'methfessel-paxton'
vdw_corr = 'DFT-D3' ,
dftd3_threebody = .false. ,
nosym = .true.,
/
&ELECTRONS
conv_thr = 1.0d-6 ,
mixing_beta = 0.3 ,
diagonalization = 'david' ,
electron_maxstep = 200
 /
&IONS
ion_dynamics = 'bfgs' 
 /
CELL_PARAMETERS angstrom
5.085516694316555 0.0 -0.4194463474902865
2.4216746163412126 21.613950003582815 -1.6777853899611446
0.0 0.0 27.829665153152003

ATOMIC_SPECIES
Ag  107.8682  Ag.pbe-n-rrkjus_psl.1.0.0.UPF

ATOMIC_POSITIONS (Angstrom)
Ag 2.7901903188279094 20.623275858151203 15.805380606568448
Ag 4.485362550266766 18.21918501785269 15.66556515740502
Ag 2.790190318827917 15.818905437404812 15.805380606568447
Ag 6.180534781705619 13.418625856956933 15.525749708241591
Ag 2.790190318827919 11.014535016658417 15.805380606568443
Ag 1.0950180873890656 8.614255436210541 15.945196055731875
Ag 4.485362550266767 6.213975855762665 15.665565157405016
Ag 1.095018087389068 3.8098850154641504 15.945196055731875
Ag 2.063687933925552 1.409605435016273 17.34335054736616
Ag 5.211864935169135 20.623275858151203 14.127595216607304 0 0 0
Ag 6.907037166607994 18.21918501785269 13.987779767443875 0 0 0
Ag 5.211864935169134 15.818905437404812 14.127595216607304 0 0 0
Ag 3.5166927037302846 13.418625856956933 14.267410665770734 0 0 0
Ag 5.211864935169144 11.014535016658417 14.1275952166073 0 0 0
Ag 3.5166927037302917 8.614255436210541 14.26741066577073 0 0 0
Ag 1.8215204722914375 6.213975855762665 14.407226114934158 0 0 0
Ag 3.51669270373029 3.8098850154641504 14.267410665770731 0 0 0
Ag 4.485362550266769 1.409605435016273 15.665565157405018
Ag 2.5480228571937977 20.623275858151203 12.869256174136446 0 0 0
Ag 4.243195088632651 18.21918501785269 12.729440724973017 0 0 0
Ag 2.5480228571937964 15.818905437404812 12.86925617413645 0 0 0
Ag 5.938367320071503 13.418625856956933 12.589625275809588 0 0 0
Ag 2.5480228571938026 11.014535016658417 12.869256174136444 0 0 0
Ag 5.938367320071501 8.614255436210541 12.589625275809587 0 0 0
Ag 4.243195088632645 6.213975855762665 12.729440724973019 0 0 0
Ag 0.8528506257549473 3.8098850154641504 13.009071623299874 0 0 0
Ag 1.82152047229144 1.409605435016273 14.407226114934161 0 0 0
Ag 4.969697473535019 20.623275858151203 11.191470784175303 0 0 0
Ag 6.664869704973869 18.21918501785269 11.051655335011876 0 0 0
Ag 4.969697473535018 15.818905437404812 11.191470784175305 0 0 0
Ag 3.2745252420961637 13.418625856956933 11.331286233338734 0 0 0
Ag 4.969697473535019 11.014535016658417 11.191470784175303 0 0 0
Ag 3.2745252420961704 8.614255436210541 11.331286233338734 0 0 0
Ag 1.5793530106573122 6.213975855762665 11.47110168250216 0 0 0
Ag 3.2745252420961686 3.8098850154641504 11.331286233338734 0 0 0
Ag 4.243195088632658 1.409605435016273 12.729440724973017 0 0 0
Ag 7.391372089876233 20.623275858151203 9.51368539421416 0 0 0
Ag 4.001027626998525 18.21918501785269 9.793316292541022 0 0 0
Ag 2.3058553955596777 15.818905437404812 9.933131741704447 0 0 0
Ag 5.696199858437381 13.418625856956933 9.653500843377593 0 0 0
Ag 2.3058553955596777 11.014535016658417 9.93313174170445 0 0 0
Ag 5.69619985843738 8.614255436210541 9.653500843377588 0 0 0
Ag 4.001027626998525 6.213975855762665 9.793316292541022 0 0 0
Ag 0.6106831641208241 3.8098850154641504 10.072947190867877 0 0 0
Ag 1.5793530106573148 1.409605435016273 11.471101682502164 0 0 0
Ag 4.001027626998527 1.409605435016273 9.79331629254102 0 0 0

K_POINTS automatic
8 8 1   0 0 0