&CONTROL
calculation = 'relax' ,
restart_mode = 'restart' ,
outdir = './Ag_110' ,
pseudo_dir = '/home/ecastro/trabajo_final/pseudos/' ,
prefix = 'Ag_110' ,
max_seconds = 3550 ,
nstep = 500 ,
tstress = .true. ,
tprnfor = .true. ,
 /
&SYSTEM
ibrav = 0,
nat = 18,
ntyp = 1,
ecutwfc = 55 ,
ecutrho = 500 ,
occupations = 'smearing'
degauss = 0.03,
smearing = 'methfessel-paxton'
vdw_corr = 'DFT-D3' ,
dftd3_threebody = .false. ,
nosym = .true.,
/
&ELECTRONS
conv_thr = 1.0d-6 ,
mixing_beta = 0.3 ,
diagonalization = 'david' ,
electron_maxstep = 200
 /
&IONS
ion_dynamics = 'bfgs' 
 /
CELL_PARAMETERS angstrom
5.085516694316552 0.0 0.41944634749028237
1.6951722314388522 7.2046500011942705 0.13981544916342584
0.0 0.0 27.689849703988564

ATOMIC_SPECIES
Ag  107.8682  Ag.pbe-n-rrkjus_psl.1.0.0.UPF

ATOMIC_POSITIONS (Angstrom)
Ag 5.812019079218916 6.0051454209454365 10.629169521235422 0 0 0
Ag 2.421674616341214 3.6010545806469256 10.349538622908568 0 0 0
Ag 0.7265023849023613 1.2007750001990436 10.209723173745141 0 0 0
Ag 3.1481770012435812 6.0051454209454365 11.887508563706279 0 0 0
Ag 4.843349232682431 3.601054580646922 12.027324012869705 0 0 0
Ag 3.1481770012435804 1.2007750001990452 11.887508563706279 0 0 0
Ag 5.5698516175847965 6.005145420945438 13.565293953667421 0 0 0
Ag 2.179507154707095 3.6010545806469256 13.285663055340567 0 0 0
Ag 0.48433492326824357 1.2007750001990467 13.14584760617714 0 0 0
Ag 2.90600953960946 6.0051454209454365 14.823632996138278 0 0 0
Ag 4.60118177104831 3.601054580646922 14.963448445301704 0 0 0
Ag 2.906009539609458 1.2007750001990436 14.823632996138278 0 0 0
Ag 5.327684155950676 6.0051454209454365 16.50141838609942
Ag 1.9373396930729738 3.6010545806469207 16.221787487772566
Ag 5.327684155950674 1.2007750001990436 16.50141838609942
Ag 2.6638420779753393 6.0051454209454365 17.759757428570275
Ag 4.3590143094141895 3.601054580646922 17.899572877733704
Ag 2.6638420779753385 1.2007750001990436 17.759757428570282

K_POINTS automatic
8 8 1   0 0 0