&CONTROL
calculation = 'relax' ,
restart_mode = 'restart' ,
outdir = './Ag_100' ,
pseudo_dir = '/home/ecastro/trabajo_final/pseudos/' ,
prefix = 'Ag_100' ,
max_seconds = 3550 ,
nstep = 500 ,
tstress = .true. ,
tprnfor = .true. ,
 /
&SYSTEM
ibrav = 0,
nat = 18,
ntyp = 1,
ecutwfc = 55 ,
ecutrho = 500 ,
occupations = 'smearing'
degauss = 0.03,
smearing = 'methfessel-paxton'
vdw_corr = 'DFT-D3' ,
dftd3_threebody = .false. ,
nosym = .true.,
/
&ELECTRONS
conv_thr = 1.0d-6 ,
mixing_beta = 0.3 ,
diagonalization = 'david' ,
electron_maxstep = 200
 /
&IONS
ion_dynamics = 'bfgs' 
 /
CELL_PARAMETERS angstrom
2.946094323370934 0.0 1.8039624915512008e-16
3.475788254973994e-15 21.613950003582815 1.3234727344409308e-15
0.0 0.0 24.252320876640592

ATOMIC_SPECIES
Ag  107.8682  Ag.pbe-n-rrkjus_psl.1.0.0.UPF

ATOMIC_POSITIONS (Angstrom)
Ag 0.736523580842739 20.41444542333398 12.551392525984356 0 0 0
Ag 0.736523580842736 18.01035458303546 14.252320876640594
Ag 0.7365235808427384 15.610075002587589 12.551392525984356 0 0 0
Ag 2.2095707425281996 13.20979542213971 13.401856701312479
Ag 0.7365235808427374 10.805704581841196 12.551392525984355 0 0 0
Ag 2.2095707425281987 8.405425001393317 13.401856701312477
Ag 0.7365235808427341 6.0051454209454365 14.252320876640592
Ag 2.209570742528198 3.601054580646925 13.401856701312477
Ag 0.7365235808427333 1.2007750001990458 14.252320876640592
Ag 2.209570742528203 20.41444542333398 10.000000000000004 0 0 0
Ag 2.209570742528203 18.01035458303546 11.700928350656241 0 0 0
Ag 2.2095707425282027 15.610075002587589 10.000000000000004 0 0 0
Ag 0.7365235808427377 13.20979542213971 10.850464175328117 0 0 0
Ag 2.209570742528202 10.805704581841196 10.000000000000002 0 0 0
Ag 0.736523580842737 8.405425001393317 10.850464175328117 0 0 0
Ag 2.209570742528201 6.0051454209454365 11.70092835065624 0 0 0
Ag 0.7365235808427361 3.601054580646925 10.850464175328117 0 0 0
Ag 2.2095707425282 1.2007750001990458 11.70092835065624 0 0 0

K_POINTS automatic
8 8 1   0 0 0