&CONTROL
calculation = 'relax' ,
restart_mode = 'restart' ,
outdir = './Ag_111' ,
pseudo_dir = '/home/ecastro/trabajo_final/pseudos/' ,
prefix = 'Ag_111' ,
max_seconds = 3550 ,
nstep = 500 ,
tstress = .true. ,
tprnfor = .true. ,
 /
&SYSTEM
ibrav = 0,
nat = 21,
ntyp = 1,
ecutwfc = 55 ,
ecutrho = 500 ,
occupations = 'smearing'
degauss = 0.03,
smearing = 'methfessel-paxton'
vdw_corr = 'DFT-D3' ,
dftd3_threebody = .false. ,
nosym = .true.,
/
&ELECTRONS
conv_thr = 1.0d-6 ,
mixing_beta = 0.3 ,
diagonalization = 'david' ,
electron_maxstep = 200
 /
&IONS
ion_dynamics = 'bfgs' 
 /
CELL_PARAMETERS angstrom
5.025164197228886 0.0 -0.41446855742745337
2.3929353320137565 9.463708740000003 -1.6578742297098132
0.0 0.0 27.598590219503293

ATOMIC_SPECIES
Ag  107.8682  Ag.pbe-n-rrkjus_psl.1.0.0.UPF

ATOMIC_POSITIONS (Angstrom)
Ag 6.204539468007098 8.449739946428574 15.269671658720462
Ag 2.8544300031878347 3.717885576428573 15.545984030338762
Ag 4.529484735597459 6.083812761428573 15.407827844529615
Ag 2.1365494035837083 1.3519583914285718 17.065702074239425
Ag 3.5723106027919638 8.449739946428574 14.026265986438105 0 0 0
Ag 5.247365335201595 3.717885576428573 13.888109800628952 0 0 0
Ag 1.8972558703823337 6.083812761428573 14.164422172247257 0 0 0
Ag 4.5294847355974674 1.3519583914285718 15.407827844529612
Ag 5.965245934805715 8.449739946428574 12.368391756728297 0 0 0
Ag 2.61513646998646 3.717885576428573 12.644704128346598 0 0 0
Ag 4.290191202396085 6.083812761428573 12.506547942537452 0 0 0
Ag 1.8972558703823335 1.3519583914285718 14.164422172247258 0 0 0
Ag 3.333017069590589 8.449739946428574 11.124986084445938 0 0 0
Ag 5.00807180200022 3.717885576428573 10.986829898636786 0 0 0
Ag 1.657962337180959 6.083812761428573 11.263142270255091 0 0 0
Ag 4.290191202396093 1.3519583914285718 12.506547942537447 0 0 0
Ag 5.725952401604344 8.449739946428574 9.467111854736126 0 0 0
Ag 2.3758429367850833 3.717885576428573 9.74342422635443 0 0 0
Ag 4.050897669194719 6.083812761428573 9.605268040545281 0 0 0
Ag 1.6579623371809589 1.3519583914285718 11.263142270255091 0 0 0
Ag 4.050897669194715 1.3519583914285718 9.605268040545281 0 0 0

K_POINTS automatic
8 8 1   0 0 0