&CONTROL
calculation = 'relax' ,
restart_mode = 'restart' ,
outdir = './Ag_110' ,
pseudo_dir = '/home/ecastro/trabajo_final/pseudos/' ,
prefix = 'Ag_110' ,
max_seconds = 3550 ,
nstep = 500 ,
tstress = .true. ,
tprnfor = .true. ,
 /
&SYSTEM
ibrav = 0,
nat = 24,
ntyp = 1,
ecutwfc = 55 ,
ecutrho = 500 ,
occupations = 'smearing'
degauss = 0.03,
smearing = 'methfessel-paxton'
vdw_corr = 'DFT-D3' ,
dftd3_threebody = .false. ,
nosym = .true.,
/
&ELECTRONS
conv_thr = 1.0d-6 ,
mixing_beta = 0.3 ,
diagonalization = 'david' ,
electron_maxstep = 200
 /
&IONS
ion_dynamics = 'bfgs' 
 /
CELL_PARAMETERS angstrom
5.025164197228886 0.0 -0.41446855742745337
1.521880437473674e-15 9.46370874 5.794850308251915e-16
0.0 0.0 27.598590219503293

ATOMIC_SPECIES
Ag  107.8682  Ag.pbe-n-rrkjus_psl.1.0.0.UPF

ATOMIC_POSITIONS (Angstrom)
Ag 1.3460261242577332 3.5488907774999996 17.339547371111138
Ag 4.696135589076991 8.2807451475 17.063234999492835
Ag 3.0210808566673637 5.9148179625 17.201391185301986
Ag 3.021080856667364 1.1829635925 17.201391185301986
Ag 3.738961456271493 3.5488907774999996 15.681673141401324
Ag 2.0639067238618667 8.2807451475 15.819829327210474
Ag 0.38885199145223925 5.9148179625 15.957985513019626
Ag 0.3888519914522385 1.1829635925 15.957985513019626
Ag 1.1067325910563586 3.5488907774999996 14.438267469118973 0 0 0
Ag 4.456842055875616 8.2807451475 14.16195509750067 0 0 0
Ag 2.781787323465989 5.9148179625 14.300111283309821 0 0 0
Ag 2.7817873234659896 1.1829635925 14.300111283309821 0 0 0
Ag 3.499667923070118 3.5488907774999996 12.78039323940916 0 0 0
Ag 1.824613190660492 8.2807451475 12.91854942521831 0 0 0
Ag 0.14955845825086453 5.9148179625 13.05670561102746 0 0 0
Ag 0.1495584582508638 1.1829635925 13.056705611027462 0 0 0
Ag 0.8674390578549904 3.5488907774999996 11.536987567126799 0 0 0
Ag 4.217548522674246 8.2807451475 11.260675195508503 0 0 0
Ag 2.542493790264616 5.9148179625 11.398831381317654 0 0 0
Ag 2.542493790264615 1.1829635925 11.398831381317654 0 0 0
Ag 3.2603743898687414 3.5488907774999996 9.879113337416996 0 0 0
Ag 1.5853196574591153 8.2807451475 10.017269523226147 0 0 0
Ag 4.93542912227837 5.9148179625 9.740957151607846 0 0 0
Ag 4.935429122278369 1.1829635925 9.740957151607844 0 0 0

K_POINTS automatic
8 8 1   0 0 0