&CONTROL
calculation = 'relax' ,
restart_mode = 'restart' ,
outdir = './Ag_100' ,
pseudo_dir = '/home/ecastro/trabajo_final/pseudos/' ,
prefix = 'Ag_100' ,
max_seconds = 3550 ,
nstep = 500 ,
tstress = .true. ,
tprnfor = .true. ,
 /
&SYSTEM
ibrav = 0,
nat = 16,
ntyp = 1,
ecutwfc = 55 ,
ecutrho = 500 ,
occupations = 'smearing'
degauss = 0.03,
smearing = 'methfessel-paxton'
vdw_corr = 'DFT-D3' ,
dftd3_threebody = .false. ,
nosym = .true.,
/
&ELECTRONS
conv_thr = 1.0d-6 ,
mixing_beta = 0.3 ,
diagonalization = 'david' ,
electron_maxstep = 200
 /
&IONS
ion_dynamics = 'bfgs' 
 /
CELL_PARAMETERS angstrom
2.911131475 0.0 1.7825539213779314e-16
1.521880437473674e-15 9.46370874 5.794850308251915e-16
0.0 0.0 29.244083974057038

ATOMIC_SPECIES
Ag  107.8682  Ag.pbe-n-rrkjus_psl.1.0.0.UPF

ATOMIC_POSITIONS (Angstrom)
Ag 2.183348606249999 8.2807451475 18.193619886096013
Ag 0.7277828687500023 3.5488907774999996 17.353248615727185
Ag 0.7277828687500016 5.9148179625 19.033991156464833
Ag 0.7277828687500009 1.1829635925 19.033991156464833
Ag 0.7277828687500032 8.2807451475 15.672506074989549 0 0 0
Ag 2.183348606250002 3.5488907774999996 14.83213480462072 0 0 0
Ag 2.18334860625 5.9148179625 16.512877345358362
Ag 2.183348606249999 1.1829635925 16.512877345358362
Ag 2.1833486062500005 8.2807451475 13.151392263883084 0 0 0
Ag 0.7277828687499998 3.5488907774999996 12.31102099351426 0 0 0
Ag 0.7277828687500002 5.9148179625 13.991763534251902 0 0 0
Ag 0.7277828687499994 1.1829635925 13.991763534251904 0 0 0
Ag 0.7277828687500013 8.2807451475 10.630278452776617 0 0 0
Ag 2.1833486062500005 3.5488907774999996 9.789907182407797 0 0 0
Ag 2.1833486062500014 5.9148179625 11.470649723145439 0 0 0
Ag 2.18334860625 1.1829635925 11.470649723145439 0 0 0

K_POINTS automatic
8 8 1   0 0 0