&CONTROL
calculation = 'relax' ,
restart_mode = 'restart' ,
outdir = './Ag_mp-2646971_110_bridge_0' ,
pseudo_dir = '/home/ecastro/trabajo_final/pseudos/' ,
prefix = 'Ag_mp-2646971_110_bridge_0' ,
max_seconds = 3550 ,
nstep = 500 ,
tstress = .true. ,
tprnfor = .true. ,
 /
&SYSTEM
ibrav = 0,
nat = 7,
ntyp = 2,
ecutwfc = 55 ,
ecutrho = 500 ,
occupations = 'smearing'
degauss = 0.03,
smearing = 'methfessel-paxton'
vdw_corr = 'DFT-D3' ,
dftd3_threebody = .false. ,
nosym = .true.,
/
&ELECTRONS
conv_thr = 1.0d-6 ,
mixing_beta = 0.3 ,
diagonalization = 'david' ,
electron_maxstep = 200
 /
&IONS
ion_dynamics = 'bfgs' 
 /
CELL_PARAMETERS angstrom
2.86767685015893 0.0 1.7559456377680488e-16
-0.9558922833863097 2.703671662665411 1.7559456377680488e-16
0.0 0.0 31.707241716801786

ATOMIC_SPECIES
Li  6.9410  Li.pbe-s-rrkjus_psl.1.0.0.UPF
Ag  107.8682  Ag.pbe-n-rrkjus_psl.1.0.0.UPF

ATOMIC_POSITIONS (Angstrom)
Ag           -0.0000326085        2.0277892996       21.6354418350
Ag            1.9117508819        0.6759418161       19.3157790530
Ag            0.0000000000        2.0277537470       17.0243450301
Ag            1.9117845668        0.6759179157       14.6828966867
Ag            0.0000000000        2.0277537470       12.3414483434
Ag            1.9117845668        0.6759179157       10.0000000000
Li 0.4779135331931548 0.6759534682672947 23.635441835

K_POINTS automatic
8 8 1   0 0 0